\ Equation counts
\     Total        E        G        L        N        X        C        B
\	0	0	0	0
\
\ Variable counts
\                  x        b        i      s1s      s2s       sc       si
\     Total     cont   binary  integer     sos1     sos2    scont     sint
\	30	30

\ Nonzero counts
\     Total    const       NL      DLL
\
\
Minimize
 obj: [ + 21.5 x_1 * x_1 - 2.5 x_1 * x_2 + 11.0 x_1 * x_3 - 10.0 x_1 * x_5 - 6.0 x_1 * x_7 + 7.0 x_1 * x_9 - 11.0 x_1 * x_10 + 8.5 x_1 * x_11 + 17.0 x_1 * x_12 + 19.5 x_1 * x_14 + 1.0 x_1 * x_15 - 22.5 x_1 * x_17 - 27.0 x_1 * x_18 - 13.0 x_1 * x_19 + 8.0 x_1 * x_20 - 14.0 x_1 * x_23 + 16.5 x_1 * x_29 + 26.0 x_1 * x_30 - 2.5 x_2 * x_1 + 25.0 x_2 * x_3 - 1.0 x_2 * x_5 - 13.0 x_2 * x_7 + 20.5 x_2 * x_9 - 4.0 x_2 * x_10 - 11.0 x_2 * x_12 - 0.5 x_2 * x_14 + 18.0 x_2 * x_16 + 2.5 x_2 * x_20 - 1.0 x_2 * x_21 - 1.5 x_2 * x_23 + 19.0 x_2 * x_24 + 18.0 x_2 * x_26 + 9.0 x_2 * x_27 + 20.5 x_2 * x_29 - 8.5 x_2 * x_30 + 11.0 x_3 * x_1 + 25.0 x_3 * x_2 + 0.5 x_3 * x_4 + 18.5 x_3 * x_5 - 18.0 x_3 * x_6 + 8.0 x_3 * x_7 - 14.5 x_3 * x_8 + 13.5 x_3 * x_14 - 23.0 x_3 * x_16 + 17.5 x_3 * x_17 + 4.0 x_3 * x_18 + 21.0 x_3 * x_19 + 21.0 x_3 * x_21 - 11.0 x_3 * x_22 - 24.5 x_3 * x_24 - 13.0 x_3 * x_25 - 13.0 x_3 * x_27 + 16.0 x_3 * x_28 + 7.5 x_3 * x_29 + 0.5 x_4 * x_3 + 5.5 x_4 * x_5 + 12.0 x_4 * x_6 - 15.0 x_4 * x_8 + 18.5 x_4 * x_9 + 19.0 x_4 * x_10 - 26.0 x_4 * x_13 + 4.5 x_4 * x_18 + 14.0 x_4 * x_19 + 6.5 x_4 * x_21 + 4.0 x_4 * x_22 + 3.5 x_4 * x_24 + 26.0 x_4 * x_27 + 7.5 x_4 * x_29 - 5.0 x_4 * x_30 - 10.0 x_5 * x_1 - 1.0 x_5 * x_2 + 18.5 x_5 * x_3 + 5.5 x_5 * x_4 + 21.5 x_5 * x_7 + 19.5 x_5 * x_11 + 17.0 x_5 * x_12 + 26.0 x_5 * x_14 + 8.0 x_5 * x_15 - 8.5 x_5 * x_17 + 13.5 x_5 * x_18 + 11.0 x_5 * x_19 - 9.0 x_5 * x_21 + 4.5 x_5 * x_22 + 5.0 x_5 * x_24 - 13.5 x_5 * x_25 + 3.0 x_5 * x_27 - 5.0 x_5 * x_29 - 18.0 x_6 * x_3 + 12.0 x_6 * x_4 - 3.0 x_6 * x_7 - 23.5 x_6 * x_10 + 1.5 x_6 * x_11 + 15.5 x_6 * x_13 + 11.5 x_6 * x_16 - 14.0 x_6 * x_17 - 3.0 x_6 * x_18 - 7.5 x_6 * x_19 + 1.0 x_6 * x_20 - 24.5 x_6 * x_21 + 11.5 x_6 * x_22 - 6.0 x_6 * x_23 + 14.0 x_6 * x_24 - 13.0 x_6 * x_26 - 1.5 x_6 * x_28 - 21.5 x_6 * x_29 - 6.0 x_7 * x_1 - 13.0 x_7 * x_2 + 8.0 x_7 * x_3 + 21.5 x_7 * x_5 - 3.0 x_7 * x_6 - 13.5 x_7 * x_12 - 3.0 x_7 * x_13 + 6.0 x_7 * x_15 - 2.5 x_7 * x_20 - 18.5 x_7 * x_21 + 10.0 x_7 * x_22 - 11.5 x_7 * x_24 - 27.0 x_7 * x_25 + 5.0 x_7 * x_28 - 14.5 x_8 * x_3 - 15.0 x_8 * x_4 - 25.5 x_8 * x_9 - 7.0 x_8 * x_10 + 13.5 x_8 * x_14 + 8.5 x_8 * x_16 - 13.5 x_8 * x_17 - 20.0 x_8 * x_19 + 3.0 x_8 * x_21 - 6.5 x_8 * x_24 + 20.0 x_8 * x_25 - 3.0 x_8 * x_27 - 4.5 x_8 * x_30 + 7.0 x_9 * x_1 + 20.5 x_9 * x_2 + 18.5 x_9 * x_4 - 25.5 x_9 * x_8 - 27.0 x_9 * x_9 + 8.0 x_9 * x_10 + 6.0 x_9 * x_11 - 9.0 x_9 * x_13 + 4.0 x_9 * x_14 - 7.5 x_9 * x_15 - 24.0 x_9 * x_16 + 12.0 x_9 * x_17 + 15.0 x_9 * x_19 + 16.0 x_9 * x_21 - 16.5 x_9 * x_22 + 19.5 x_9 * x_28 - 25.0 x_9 * x_29 - 25.5 x_9 * x_30 - 11.0 x_10 * x_1 - 4.0 x_10 * x_2 + 19.0 x_10 * x_4 - 23.5 x_10 * x_6 - 7.0 x_10 * x_8 + 8.0 x_10 * x_9 + 3.0 x_10 * x_10 + 12.5 x_10 * x_12 - 5.5 x_10 * x_13 + 16.5 x_10 * x_16 - 6.0 x_10 * x_20 + 12.5 x_10 * x_21 - 3.0 x_10 * x_22 + 1.5 x_10 * x_23 + 10.5 x_10 * x_24 - 1.5 x_10 * x_28 - 6.5 x_10 * x_29 + 8.5 x_11 * x_1 + 19.5 x_11 * x_5 + 1.5 x_11 * x_6 + 6.0 x_11 * x_9 + 12.5 x_11 * x_12 - 22.5 x_11 * x_17 + 4.0 x_11 * x_21 - 16.5 x_11 * x_22 + 4.0 x_11 * x_24 + 14.0 x_11 * x_28 - 11.0 x_11 * x_29 + 17.0 x_12 * x_1 - 11.0 x_12 * x_2 + 17.0 x_12 * x_5 - 13.5 x_12 * x_7 + 12.5 x_12 * x_10 + 12.5 x_12 * x_11 - 13.0 x_12 * x_12 - 3.0 x_12 * x_13 - 15.0 x_12 * x_14 + 18.0 x_12 * x_19 - 10.5 x_12 * x_20 + 26.5 x_12 * x_23 - 3.5 x_12 * x_24 + 7.5 x_12 * x_25 - 27.0 x_12 * x_26 - 22.5 x_12 * x_29 - 26.0 x_13 * x_4 + 15.5 x_13 * x_6 - 3.0 x_13 * x_7 - 9.0 x_13 * x_9 - 5.5 x_13 * x_10 - 3.0 x_13 * x_12 - 20.0 x_13 * x_14 - 3.0 x_13 * x_16 + 25.0 x_13 * x_17 - 26.0 x_13 * x_18 - 15.0 x_13 * x_19 + 16.5 x_13 * x_20 + 23.0 x_13 * x_21 - 7.0 x_13 * x_22 + 1.0 x_13 * x_23 - 17.5 x_13 * x_24 - 21.0 x_13 * x_29 - 19.5 x_13 * x_30 + 19.5 x_14 * x_1 - 0.5 x_14 * x_2 + 13.5 x_14 * x_3 + 26.0 x_14 * x_5 + 13.5 x_14 * x_8 + 4.0 x_14 * x_9 - 15.0 x_14 * x_12 - 20.0 x_14 * x_13 + 13.0 x_14 * x_14 + 15.0 x_14 * x_15 + 6.0 x_14 * x_17 + 6.5 x_14 * x_19 + 21.0 x_14 * x_20 + 14.0 x_14 * x_21 + 10.0 x_14 * x_22 - 9.0 x_14 * x_24 + 1.0 x_15 * x_1 + 8.0 x_15 * x_5 + 6.0 x_15 * x_7 - 7.5 x_15 * x_9 + 15.0 x_15 * x_14 + 22.0 x_15 * x_15 + 8.5 x_15 * x_16 + 6.5 x_15 * x_17 - 15.5 x_15 * x_19 - 24.0 x_15 * x_21 - 26.0 x_15 * x_22 + 6.5 x_15 * x_23 + 22.0 x_15 * x_25 + 18.0 x_15 * x_26 - 19.0 x_15 * x_29 - 17.0 x_15 * x_30 + 18.0 x_16 * x_2 - 23.0 x_16 * x_3 + 11.5 x_16 * x_6 + 8.5 x_16 * x_8 - 24.0 x_16 * x_9 + 16.5 x_16 * x_10 - 3.0 x_16 * x_13 + 8.5 x_16 * x_15 - 3.0 x_16 * x_16 - 13.0 x_16 * x_18 + 25.5 x_16 * x_20 - 17.0 x_16 * x_22 - 14.5 x_16 * x_25 - 19.0 x_16 * x_26 + 25.5 x_16 * x_27 + 12.5 x_16 * x_28 - 11.0 x_16 * x_29 - 22.5 x_17 * x_1 + 17.5 x_17 * x_3 - 8.5 x_17 * x_5 - 14.0 x_17 * x_6 - 13.5 x_17 * x_8 + 12.0 x_17 * x_9 - 22.5 x_17 * x_11 + 25.0 x_17 * x_13 + 6.0 x_17 * x_14 + 6.5 x_17 * x_15 - 23.0 x_17 * x_17 - 18.5 x_17 * x_19 + 4.5 x_17 * x_20 - 7.5 x_17 * x_26 - 21.5 x_17 * x_27 - 27.0 x_18 * x_1 + 4.0 x_18 * x_3 + 4.5 x_18 * x_4 + 13.5 x_18 * x_5 - 3.0 x_18 * x_6 - 26.0 x_18 * x_13 - 13.0 x_18 * x_16 + 17.0 x_18 * x_21 - 26.5 x_18 * x_23 + 27.0 x_18 * x_24 - 25.0 x_18 * x_30 - 13.0 x_19 * x_1 + 21.0 x_19 * x_3 + 14.0 x_19 * x_4 + 11.0 x_19 * x_5 - 7.5 x_19 * x_6 - 20.0 x_19 * x_8 + 15.0 x_19 * x_9 + 18.0 x_19 * x_12 - 15.0 x_19 * x_13 + 6.5 x_19 * x_14 - 15.5 x_19 * x_15 - 18.5 x_19 * x_17 + 19.5 x_19 * x_20 - 15.0 x_19 * x_21 + 6.0 x_19 * x_26 - 4.5 x_19 * x_27 + 8.0 x_20 * x_1 + 2.5 x_20 * x_2 + 1.0 x_20 * x_6 - 2.5 x_20 * x_7 - 6.0 x_20 * x_10 - 10.5 x_20 * x_12 + 16.5 x_20 * x_13 + 21.0 x_20 * x_14 + 25.5 x_20 * x_16 + 4.5 x_20 * x_17 + 19.5 x_20 * x_19 + 7.5 x_20 * x_20 - 6.0 x_20 * x_23 + 2.0 x_20 * x_25 + 25.0 x_20 * x_26 - 2.5 x_20 * x_27 - 8.0 x_20 * x_28 + 23.5 x_20 * x_29 - 1.0 x_21 * x_2 + 21.0 x_21 * x_3 + 6.5 x_21 * x_4 - 9.0 x_21 * x_5 - 24.5 x_21 * x_6 - 18.5 x_21 * x_7 + 3.0 x_21 * x_8 + 16.0 x_21 * x_9 + 12.5 x_21 * x_10 + 4.0 x_21 * x_11 + 23.0 x_21 * x_13 + 14.0 x_21 * x_14 - 24.0 x_21 * x_15 + 17.0 x_21 * x_18 - 15.0 x_21 * x_19 + 22.0 x_21 * x_21 - 5.5 x_21 * x_22 + 1.5 x_21 * x_23 - 25.0 x_21 * x_25 - 14.0 x_21 * x_26 + 14.0 x_21 * x_28 + 22.0 x_21 * x_29 - 7.5 x_21 * x_30 - 11.0 x_22 * x_3 + 4.0 x_22 * x_4 + 4.5 x_22 * x_5 + 11.5 x_22 * x_6 + 10.0 x_22 * x_7 - 16.5 x_22 * x_9 - 3.0 x_22 * x_10 - 16.5 x_22 * x_11 - 7.0 x_22 * x_13 + 10.0 x_22 * x_14 - 26.0 x_22 * x_15 - 17.0 x_22 * x_16 - 5.5 x_22 * x_21 - 21.5 x_22 * x_23 + 15.5 x_22 * x_24 + 10.5 x_22 * x_25 - 16.0 x_22 * x_29 - 25.5 x_22 * x_30 - 14.0 x_23 * x_1 - 1.5 x_23 * x_2 - 6.0 x_23 * x_6 + 1.5 x_23 * x_10 + 26.5 x_23 * x_12 + 1.0 x_23 * x_13 + 6.5 x_23 * x_15 - 26.5 x_23 * x_18 - 6.0 x_23 * x_20 + 1.5 x_23 * x_21 - 21.5 x_23 * x_22 - 8.0 x_23 * x_24 - 6.0 x_23 * x_25 + 13.5 x_23 * x_27 - 10.5 x_23 * x_28 - 3.5 x_23 * x_30 + 19.0 x_24 * x_2 - 24.5 x_24 * x_3 + 3.5 x_24 * x_4 + 5.0 x_24 * x_5 + 14.0 x_24 * x_6 - 11.5 x_24 * x_7 - 6.5 x_24 * x_8 + 10.5 x_24 * x_10 + 4.0 x_24 * x_11 - 3.5 x_24 * x_12 - 17.5 x_24 * x_13 - 9.0 x_24 * x_14 + 27.0 x_24 * x_18 + 15.5 x_24 * x_22 - 8.0 x_24 * x_23 - 4.5 x_24 * x_24 + 10.0 x_24 * x_26 - 16.5 x_24 * x_27 - 15.5 x_24 * x_28 - 12.5 x_24 * x_29 - 13.0 x_25 * x_3 - 13.5 x_25 * x_5 - 27.0 x_25 * x_7 + 20.0 x_25 * x_8 + 7.5 x_25 * x_12 + 22.0 x_25 * x_15 - 14.5 x_25 * x_16 + 2.0 x_25 * x_20 - 25.0 x_25 * x_21 + 10.5 x_25 * x_22 - 6.0 x_25 * x_23 - 5.0 x_25 * x_25 - 1.5 x_25 * x_27 - 20.0 x_25 * x_29 + 14.0 x_25 * x_30 + 18.0 x_26 * x_2 - 13.0 x_26 * x_6 - 27.0 x_26 * x_12 + 18.0 x_26 * x_15 - 19.0 x_26 * x_16 - 7.5 x_26 * x_17 + 6.0 x_26 * x_19 + 25.0 x_26 * x_20 - 14.0 x_26 * x_21 + 10.0 x_26 * x_24 - 25.0 x_26 * x_27 + 4.5 x_26 * x_28 + 4.5 x_26 * x_29 - 5.5 x_26 * x_30 + 9.0 x_27 * x_2 - 13.0 x_27 * x_3 + 26.0 x_27 * x_4 + 3.0 x_27 * x_5 - 3.0 x_27 * x_8 + 25.5 x_27 * x_16 - 21.5 x_27 * x_17 - 4.5 x_27 * x_19 - 2.5 x_27 * x_20 + 13.5 x_27 * x_23 - 16.5 x_27 * x_24 - 1.5 x_27 * x_25 - 25.0 x_27 * x_26 + 18.5 x_27 * x_27 + 21.5 x_27 * x_28 - 17.5 x_27 * x_29 - 1.0 x_27 * x_30 + 16.0 x_28 * x_3 - 1.5 x_28 * x_6 + 5.0 x_28 * x_7 + 19.5 x_28 * x_9 - 1.5 x_28 * x_10 + 14.0 x_28 * x_11 + 12.5 x_28 * x_16 - 8.0 x_28 * x_20 + 14.0 x_28 * x_21 - 10.5 x_28 * x_23 - 15.5 x_28 * x_24 + 4.5 x_28 * x_26 + 21.5 x_28 * x_27 + 16.5 x_29 * x_1 + 20.5 x_29 * x_2 + 7.5 x_29 * x_3 + 7.5 x_29 * x_4 - 5.0 x_29 * x_5 - 21.5 x_29 * x_6 - 25.0 x_29 * x_9 - 6.5 x_29 * x_10 - 11.0 x_29 * x_11 - 22.5 x_29 * x_12 - 21.0 x_29 * x_13 - 19.0 x_29 * x_15 - 11.0 x_29 * x_16 + 23.5 x_29 * x_20 + 22.0 x_29 * x_21 - 16.0 x_29 * x_22 - 12.5 x_29 * x_24 - 20.0 x_29 * x_25 + 4.5 x_29 * x_26 - 17.5 x_29 * x_27 - 7.5 x_29 * x_29 - 26.5 x_29 * x_30 + 26.0 x_30 * x_1 - 8.5 x_30 * x_2 - 5.0 x_30 * x_4 - 4.5 x_30 * x_8 - 25.5 x_30 * x_9 - 19.5 x_30 * x_13 - 17.0 x_30 * x_15 - 25.0 x_30 * x_18 - 7.5 x_30 * x_21 - 25.5 x_30 * x_22 - 3.5 x_30 * x_23 + 14.0 x_30 * x_25 - 5.5 x_30 * x_26 - 1.0 x_30 * x_27 - 26.5 x_30 * x_29 + 17.5 x_30 * x_30 ] + 9.0 x_1 + 35.0 x_2 + 0.0 x_3 + 0.0 x_4 + 0.0 x_5 + 0.0 x_6 + 0.0 x_7 + 0.0 x_8 + 35.0 x_9 + 19.0 x_10 + 8.0 x_11 + 0.0 x_12 + 0.0 x_13 - 52.0 x_14 - 45.0 x_15 + 0.0 x_16 + 0.0 x_17 + 0.0 x_18 - 47.0 x_19 - 38.0 x_20 + 52.0 x_21 - 17.0 x_22 - 35.0 x_23 + 0.0 x_24 - 37.0 x_25 + 0.0 x_26 - 13.0 x_27 - 12.0 x_28 + 0.0 x_29 + 50.0 x_30

Subject To

Bounds
 x_1 <= 1.0
 x_2 <= 1.0
 x_3 <= 1.0
 x_4 <= 1.0
 x_5 <= 1.0
 x_6 <= 1.0
 x_7 <= 1.0
 x_8 <= 1.0
 x_9 <= 1.0
 x_10 <= 1.0
 x_11 <= 1.0
 x_12 <= 1.0
 x_13 <= 1.0
 x_14 <= 1.0
 x_15 <= 1.0
 x_16 <= 1.0
 x_17 <= 1.0
 x_18 <= 1.0
 x_19 <= 1.0
 x_20 <= 1.0
 x_21 <= 1.0
 x_22 <= 1.0
 x_23 <= 1.0
 x_24 <= 1.0
 x_25 <= 1.0
 x_26 <= 1.0
 x_27 <= 1.0
 x_28 <= 1.0
 x_29 <= 1.0
 x_30 <= 1.0

End